\ This file was automatically generated by Zimpl
\ var x1 >= 0;
\ var x2 >= 0;
\ maximize Z:     3*x1 + 1*x2;
\ subto c1:     1*x1 + 1*x2 <= 8;
\ subto c2:     1*x1 + 3*x2 <= 18;
\ subto c3:     1*x1 - 1*x2 <= 2;
\Problem name: pp
Maximize
 Z:  +3 x1 + x2
Subject to
 c1_1:
  + x2 + x1 <= 8
 c2_1:
  +3 x2 + x1 <= 18
 c3_1:
  - x2 + x1 <= 2
Bounds
 0 <= x1 <= +inf
 0 <= x2 <= +inf
End
